
Teachers = {
  <"Hulio">
  <"Adamus">
  <"Adamus Jr">
};

Classes = {
  <"Algebra" 10 30>
  <"Algebra2" 10 30>
  <"Telecommunication" 20 60>
};

Rooms = {
  <"D5/120" 30>
  <"D5/500" 60>
};

// row -> teacher, column -> class
TeacherExpertise = [
  [0 0 1] // e.g. Hulio is unable to give Algebra lessons but is eager to explain differences between link and lane
  [1 1 0]
  [1 1 0]
];
